; benchmark generated from python API
(set-info :status unknown)
(declare-fun x_month () Int)
(declare-fun x_year () Int)
(declare-fun x_day () Int)
(assert
 (let (($x511 (or (= x_month 4) (= x_month 6) (= x_month 9) (= x_month 11))))
 (let ((?x529 (ite $x511 30 31)))
 (let (($x469 (= (mod x_year 400) 0)))
 (let (($x500 (= (mod x_year 4) 0)))
 (let ((?x471 (ite (or (and $x500 (and (distinct (mod x_year 100) 0) true)) $x469) 29 28)))
 (let (($x403 (= x_month 2)))
 (let (($x722 (<= x_day (ite $x403 ?x471 ?x529))))
 (let (($x473 (>= x_day 1)))
 (let (($x540 (<= x_month 2)))
 (let (($x534 (>= x_month 1)))
 (let (($x544 (= x_year 2100)))
 (let (($x501 (<= x_month 12)))
 (let (($x479 (<= x_year 2099)))
 (let (($x689 (>= x_year 1901)))
 (or (and (= x_year 1900) (>= x_month 3) $x501 $x473 $x722) (and $x689 $x479 $x534 $x501 $x473 $x722) (and $x544 $x534 $x540 $x473 $x722)))))))))))))))))
(assert
 (let (($x557 (= x_year 2019)))
 (let (($x550 (and $x557 (or (> x_month 12) (and (= x_month 12) (>= x_day 1))))))
 (or (> x_year 2019) $x550))))
(assert
 (let (($x530 (= x_year 2020)))
 (let (($x535 (and $x530 (or (< x_month 2) (and (= x_month 2) (<= x_day 29))))))
 (or (< x_year 2020) $x535))))
(assert
 (let ((?x846 (+ (mod (- (+ x_month (+ (* 0 12) 0)) 1) 12) 1)))
(let ((?x447 (ite (or (= ?x846 4) (= ?x846 6) (= ?x846 9) (= ?x846 11)) 30 31)))
(let ((?x833 (+ 0 (div (- (+ x_month (+ (* 0 12) 0)) 1) 12))))
(let ((?x832 (+ x_year ?x833)))
(let (($x853 (or (and (= (mod ?x832 4) 0) (and (distinct (mod ?x832 100) 0) true)) (= (mod ?x832 400) 0))))
(let ((?x637 (ite (= ?x846 2) (ite $x853 29 28) ?x447)))
(let (($x683 (< x_day 1)))
(let ((?x635 (ite $x683 1 (ite (> x_day ?x637) ?x637 x_day))))
(let ((?x709 (ite (< ?x635 1) 1 (ite (> ?x635 ?x637) ?x637 ?x635))))
(let ((?x658 (ite (= 2 ?x846) (ite $x853 31 31) (ite (= 1 ?x846) (ite $x853 0 0) 0))))
(let ((?x640 (ite (= 4 ?x846) (ite $x853 91 90) (ite (= 3 ?x846) (ite $x853 60 59) ?x658))))
(let ((?x622 (ite (= 6 ?x846) (ite $x853 152 151) (ite (= 5 ?x846) (ite $x853 121 120) ?x640))))
(let ((?x890 (ite (= 8 ?x846) (ite $x853 213 212) (ite (= 7 ?x846) (ite $x853 182 181) ?x622))))
(let ((?x881 (ite (= 10 ?x846) (ite $x853 274 273) (ite (= 9 ?x846) (ite $x853 244 243) ?x890))))
(let ((?x872 (ite (= 12 ?x846) (ite $x853 335 334) (ite (= 11 ?x846) (ite $x853 305 304) ?x881))))
(let ((?x697 (- (+ (* 365 (- ?x832 1)) (div (- ?x832 1) 4)) (div (- ?x832 1) 100))))
(let ((?x866 (- (+ (+ (+ ?x697 (div (- ?x832 1) 400)) ?x872) (- ?x709 1)) 730179)))
(let ((?x830 (+ (+ ?x866 366) 730179)))
(let ((?x865 (mod ?x830 146097)))
(let ((?x868 (div ?x865 36524)))
(let ((?x874 (ite (<= 4 ?x868) 3 ?x868)))
(let ((?x880 (- ?x865 (* ?x874 36524))))
(let ((?x886 (mod ?x880 1461)))
(let ((?x889 (div ?x886 365)))
(let ((?x895 (ite (<= 4 ?x889) 3 ?x889)))
(let ((?x402 (+ (+ (* (div ?x830 146097) 400) (* ?x874 100)) (* (div ?x880 1461) 4))))
(let ((?x409 (+ (+ ?x402 ?x895) 1)))
(let (($x491 (or (and (= (mod ?x409 4) 0) (and (distinct (mod ?x409 100) 0) true)) (= (mod ?x409 400) 0))))
(let ((?x901 (- ?x886 (* ?x895 365))))
(let ((?x493 (ite $x491 31 31)))
(let (($x407 (>= ?x901 ?x493)))
(let ((?x961 (ite $x407 (+ (- ?x901 ?x493) 1) (+ (- ?x901 (ite $x491 0 0)) 1))))
(let ((?x494 (ite $x491 60 59)))
(let (($x410 (>= ?x901 ?x494)))
(let ((?x505 (ite $x491 91 90)))
(let (($x412 (>= ?x901 ?x505)))
(let ((?x976 (ite $x412 (+ (- ?x901 ?x505) 1) (ite $x410 (+ (- ?x901 ?x494) 1) ?x961))))
(let ((?x506 (ite $x491 121 120)))
(let (($x414 (>= ?x901 ?x506)))
(let ((?x507 (ite $x491 152 151)))
(let (($x416 (>= ?x901 ?x507)))
(let ((?x985 (ite $x416 (+ (- ?x901 ?x507) 1) (ite $x414 (+ (- ?x901 ?x506) 1) ?x976))))
(let ((?x508 (ite $x491 182 181)))
(let (($x418 (>= ?x901 ?x508)))
(let ((?x509 (ite $x491 213 212)))
(let (($x910 (>= ?x901 ?x509)))
(let ((?x997 (ite $x910 (+ (- ?x901 ?x509) 1) (ite $x418 (+ (- ?x901 ?x508) 1) ?x985))))
(let ((?x510 (ite $x491 244 243)))
(let (($x912 (>= ?x901 ?x510)))
(let ((?x404 (ite $x491 274 273)))
(let (($x932 (>= ?x901 ?x404)))
(let ((?x917 (ite $x932 (+ (- ?x901 ?x404) 1) (ite $x912 (+ (- ?x901 ?x510) 1) ?x997))))
(let ((?x405 (ite $x491 305 304)))
(let (($x935 (>= ?x901 ?x405)))
(let ((?x406 (ite $x491 335 334)))
(let (($x937 (>= ?x901 ?x406)))
(let ((?x942 (ite $x937 (+ (- ?x901 ?x406) 1) (ite $x935 (+ (- ?x901 ?x405) 1) ?x917))))
(let (($x613 (= 0 366)))
(let ((?x703 (+ (mod (- (+ x_month (+ (* 1 12) 0)) 1) 12) 1)))
(let ((?x620 (ite (or (= ?x703 4) (= ?x703 6) (= ?x703 9) (= ?x703 11)) 30 31)))
(let ((?x700 (+ 0 (div (- (+ x_month (+ (* 1 12) 0)) 1) 12))))
(let ((?x701 (+ x_year ?x700)))
(let (($x632 (or (and (= (mod ?x701 4) 0) (and (distinct (mod ?x701 100) 0) true)) (= (mod ?x701 400) 0))))
(let ((?x682 (ite (= ?x703 2) (ite $x632 29 28) ?x620)))
(let ((?x634 (ite $x683 1 (ite (> x_day ?x682) ?x682 x_day))))
(let ((?x686 (ite (< ?x634 1) 1 (ite (> ?x634 ?x682) ?x682 ?x634))))
(let ((?x752 (ite (= 2 ?x703) (ite $x632 31 31) (ite (= 1 ?x703) (ite $x632 0 0) 0))))
(let ((?x518 (ite (= 4 ?x703) (ite $x632 91 90) (ite (= 3 ?x703) (ite $x632 60 59) ?x752))))
(let ((?x790 (ite (= 6 ?x703) (ite $x632 152 151) (ite (= 5 ?x703) (ite $x632 121 120) ?x518))))
(let ((?x775 (ite (= 8 ?x703) (ite $x632 213 212) (ite (= 7 ?x703) (ite $x632 182 181) ?x790))))
(let ((?x760 (ite (= 10 ?x703) (ite $x632 274 273) (ite (= 9 ?x703) (ite $x632 244 243) ?x775))))
(let ((?x788 (ite (= 12 ?x703) (ite $x632 335 334) (ite (= 11 ?x703) (ite $x632 305 304) ?x760))))
(let ((?x750 (- (+ (* 365 (- ?x701 1)) (div (- ?x701 1) 4)) (div (- ?x701 1) 100))))
(let ((?x517 (- (+ (+ (+ ?x750 (div (- ?x701 1) 400)) ?x788) (- ?x686 1)) 730179)))
(let ((?x736 (+ (+ ?x517 0) 730179)))
(let ((?x740 (mod ?x736 146097)))
(let ((?x741 (div ?x740 36524)))
(let ((?x743 (ite (<= 4 ?x741) 3 ?x741)))
(let ((?x745 (- ?x740 (* ?x743 36524))))
(let ((?x747 (mod ?x745 1461)))
(let ((?x748 (div ?x747 365)))
(let ((?x796 (ite (<= 4 ?x748) 3 ?x748)))
(let ((?x802 (+ (+ (* (div ?x736 146097) 400) (* ?x743 100)) (* (div ?x745 1461) 4))))
(let ((?x804 (+ (+ ?x802 ?x796) 1)))
(let (($x819 (or (and (= (mod ?x804 4) 0) (and (distinct (mod ?x804 100) 0) true)) (= (mod ?x804 400) 0))))
(let ((?x798 (- ?x747 (* ?x796 365))))
(let ((?x810 (ite $x819 31 31)))
(let (($x669 (>= ?x798 ?x810)))
(let ((?x595 (ite $x669 (+ (- ?x798 ?x810) 1) (+ (- ?x798 (ite $x819 0 0)) 1))))
(let ((?x811 (ite $x819 60 59)))
(let (($x671 (>= ?x798 ?x811)))
(let ((?x812 (ite $x819 91 90)))
(let (($x591 (>= ?x798 ?x812)))
(let ((?x675 (ite $x591 (+ (- ?x798 ?x812) 1) (ite $x671 (+ (- ?x798 ?x811) 1) ?x595))))
(let ((?x820 (ite $x819 121 120)))
(let (($x558 (>= ?x798 ?x820)))
(let ((?x821 (ite $x819 152 151)))
(let (($x593 (>= ?x798 ?x821)))
(let ((?x657 (ite $x593 (+ (- ?x798 ?x821) 1) (ite $x558 (+ (- ?x798 ?x820) 1) ?x675))))
(let ((?x899 (ite $x819 182 181)))
(let (($x645 (>= ?x798 ?x899)))
(let ((?x449 (ite $x819 213 212)))
(let (($x596 (>= ?x798 ?x449)))
(let ((?x824 (ite $x596 (+ (- ?x798 ?x449) 1) (ite $x645 (+ (- ?x798 ?x899) 1) ?x657))))
(let ((?x606 (ite $x819 244 243)))
(let (($x627 (>= ?x798 ?x606)))
(let ((?x609 (ite $x819 274 273)))
(let (($x630 (>= ?x798 ?x609)))
(let ((?x841 (ite $x630 (+ (- ?x798 ?x609) 1) (ite $x627 (+ (- ?x798 ?x606) 1) ?x824))))
(let ((?x586 (ite $x819 305 304)))
(let (($x629 (>= ?x798 ?x586)))
(let ((?x668 (ite $x819 335 334)))
(let (($x607 (>= ?x798 ?x668)))
(let ((?x838 (ite $x607 (+ (- ?x798 ?x668) 1) (ite $x629 (+ (- ?x798 ?x586) 1) ?x841))))
(let (($x585 (= 0 0)))
(let ((?x415 (ite $x414 5 (ite $x412 4 (ite $x410 3 (ite $x407 2 1))))))
(let ((?x931 (ite $x912 9 (ite $x910 8 (ite $x418 7 (ite $x416 6 ?x415))))))
(let ((?x938 (ite $x937 12 (ite $x935 11 (ite $x932 10 ?x931)))))
(let ((?x656 (ite $x558 5 (ite $x591 4 (ite $x671 3 (ite $x669 2 1))))))
(let ((?x678 (ite $x627 9 (ite $x596 8 (ite $x645 7 (ite $x593 6 ?x656))))))
(let (($x713 (= (ite $x585 ?x703 (ite $x607 12 (ite $x629 11 (ite $x630 10 ?x678)))) (ite $x613 ?x846 ?x938))))
(let (($x950 (and (= (ite $x585 ?x701 ?x804) (ite $x613 ?x832 ?x409)) $x713 (= (ite $x585 ?x686 ?x838) (ite $x613 ?x709 ?x942)))))
(not $x950))))))))))))))))))))))))))))))))))))))))))))))))))))))))))))))))))))))))))))))))))))))))))))))))))))))))))))))))))))))))))))
(check-sat)
